\ Model  -- The Multi Commodity Vehicle Transportation Problem -- 
\ LP format - for model browsing. Use MPS format to capture full model detail.
Minimize
  10 S1_D1_V - 2.285714285714286 S1_D1_c1 - 0.4444444444444445 S1_D1_c2
   - 1.388888888888889 S1_D1_c3 - 2.222222222222222 S1_D1_c4 + 15 S1_D2_V
   - 1.142857142857143 S1_D2_c1 - 1.111111111111111 S1_D2_c2
   - 0.8333333333333333 S1_D2_c3 - 1.481481481481481 S1_D2_c4 + 20 S1_D3_V
   - 4.571428571428571 S1_D3_c1 - 0.4444444444444445 S1_D3_c2
   - 2.777777777777778 S1_D3_c3 - 6.296296296296297 S1_D3_c4 + 18 S2_D1_V
   - 2.285714285714286 S2_D1_c1 - 0.4444444444444445 S2_D1_c2
   - 1.388888888888889 S2_D1_c3 - 2.222222222222222 S2_D1_c4 + 13 S2_D2_V
   - 1.142857142857143 S2_D2_c1 - 1.111111111111111 S2_D2_c2
   - 0.8333333333333333 S2_D2_c3 - 1.481481481481481 S2_D2_c4 + 20 S2_D3_V
   - 4.571428571428571 S2_D3_c1 - 0.4444444444444445 S2_D3_c2
   - 2.777777777777778 S2_D3_c3 - 6.296296296296297 S2_D3_c4 + 0.1 D1_c1_U
   + 0.1 D1_c2_U + 0.1 D1_c3_U + 0.1 D1_c4_U + 0.1 D2_c1_U + 0.1 D2_c2_U
   + 0.1 D2_c3_U + 0.1 D2_c4_U + 0.1 D3_c1_U + 0.1 D3_c2_U + 0.1 D3_c3_U
   + 0.1 D3_c4_U + 239407.4074074074 Constant
Subject To
 R0: S1_D1_c1 + S1_D2_c1 + S1_D3_c1 <= 1500
 R1: S1_D1_c2 + S1_D2_c2 + S1_D3_c2 <= 7700
 R2: S1_D1_c3 + S1_D2_c3 + S1_D3_c3 <= 30000
 R3: S1_D1_c4 + S1_D2_c4 + S1_D3_c4 <= 13000
 R4: S2_D1_c1 + S2_D2_c1 + S2_D3_c1 <= 1000
 R5: S2_D1_c2 + S2_D2_c2 + S2_D3_c2 <= 7700
 R6: S2_D1_c3 + S2_D2_c3 + S2_D3_c3 <= 10000
 R7: S2_D1_c4 + S2_D2_c4 + S2_D3_c4 <= 7000
 R8: S1_D1_c1 + S2_D1_c1 <= 2000
 R9: S1_D1_c2 + S2_D1_c2 <= 4000
 R10: S1_D1_c3 + S2_D1_c3 <= 10000
 R11: S1_D1_c4 + S2_D1_c4 <= 6000
 R12: S1_D2_c1 + S2_D2_c1 <= 1000
 R13: S1_D2_c2 + S2_D2_c2 <= 10000
 R14: S1_D2_c3 + S2_D2_c3 <= 6000
 R15: S1_D2_c4 + S2_D2_c4 <= 4000
 R16: S1_D3_c1 + S2_D3_c1 <= 4000
 R17: S1_D3_c2 + S2_D3_c2 <= 4000
 R18: S1_D3_c3 + S2_D3_c3 <= 20000
 R19: S1_D3_c4 + S2_D3_c4 <= 17000
 R20: S1_D1_V + S1_D2_V + S1_D3_V <= 15
 R21: S2_D1_V + S2_D2_V + S2_D3_V <= 20
 R22: S1_D1_V - 3.3333333333333332e-04 S1_D1_c1
   - 3.3333333333333332e-04 S1_D1_c2 - 3.3333333333333332e-04 S1_D1_c3
   - 3.3333333333333332e-04 S1_D1_c4 >= 0
 R23: S1_D2_V - 3.3333333333333332e-04 S1_D2_c1
   - 3.3333333333333332e-04 S1_D2_c2 - 3.3333333333333332e-04 S1_D2_c3
   - 3.3333333333333332e-04 S1_D2_c4 >= 0
 R24: S1_D3_V - 3.3333333333333332e-04 S1_D3_c1
   - 3.3333333333333332e-04 S1_D3_c2 - 3.3333333333333332e-04 S1_D3_c3
   - 3.3333333333333332e-04 S1_D3_c4 >= 0
 R25: S2_D1_V - 3.3333333333333332e-04 S2_D1_c1
   - 3.3333333333333332e-04 S2_D1_c2 - 3.3333333333333332e-04 S2_D1_c3
   - 3.3333333333333332e-04 S2_D1_c4 >= 0
 R26: S2_D2_V - 3.3333333333333332e-04 S2_D2_c1
   - 3.3333333333333332e-04 S2_D2_c2 - 3.3333333333333332e-04 S2_D2_c3
   - 3.3333333333333332e-04 S2_D2_c4 >= 0
 R27: S2_D3_V - 3.3333333333333332e-04 S2_D3_c1
   - 3.3333333333333332e-04 S2_D3_c2 - 3.3333333333333332e-04 S2_D3_c3
   - 3.3333333333333332e-04 S2_D3_c4 >= 0
 R28: S1_D1_V - 3.3333333333333332e-04 S1_D1_c1
   - 3.3333333333333332e-04 S1_D1_c2 - 3.3333333333333332e-04 S1_D1_c3
   - 3.3333333333333332e-04 S1_D1_c4 <= 1
 R29: S1_D2_V - 3.3333333333333332e-04 S1_D2_c1
   - 3.3333333333333332e-04 S1_D2_c2 - 3.3333333333333332e-04 S1_D2_c3
   - 3.3333333333333332e-04 S1_D2_c4 <= 1
 R30: S1_D3_V - 3.3333333333333332e-04 S1_D3_c1
   - 3.3333333333333332e-04 S1_D3_c2 - 3.3333333333333332e-04 S1_D3_c3
   - 3.3333333333333332e-04 S1_D3_c4 <= 1
 R31: S2_D1_V - 3.3333333333333332e-04 S2_D1_c1
   - 3.3333333333333332e-04 S2_D1_c2 - 3.3333333333333332e-04 S2_D1_c3
   - 3.3333333333333332e-04 S2_D1_c4 <= 1
 R32: S2_D2_V - 3.3333333333333332e-04 S2_D2_c1
   - 3.3333333333333332e-04 S2_D2_c2 - 3.3333333333333332e-04 S2_D2_c3
   - 3.3333333333333332e-04 S2_D2_c4 <= 1
 R33: S2_D3_V - 3.3333333333333332e-04 S2_D3_c1
   - 3.3333333333333332e-04 S2_D3_c2 - 3.3333333333333332e-04 S2_D3_c3
   - 3.3333333333333332e-04 S2_D3_c4 <= 1
 R34: D1_c1_U <= 6200
 R35: D1_c2_U <= 3700
 R36: D1_c3_U <= 4450
 R37: D1_c4_U <= 3534
 R38: D2_c1_U <= 3800
 R39: D2_c2_U <= 2600
 R40: D2_c3_U <= 3800
 R41: D2_c4_U <= 3133
 R42: D3_c1_U <= 4587
 R43: D3_c2_U <= 4100
 R44: D3_c3_U <= 4100
 R45: D3_c4_U <= 4100
 R46: S1_D1_c1 + S2_D1_c1 + 0.7 D1_c1_U >= 4340
 R47: S1_D1_c2 + S2_D1_c2 + D1_c2_U >= 3700
 R48: S1_D1_c3 + S2_D1_c3 + 4 D1_c3_U >= 17800
 R49: S1_D1_c4 + S2_D1_c4 + 3 D1_c4_U >= 10602
 R50: S1_D2_c1 + S2_D2_c1 + 0.7 D2_c1_U >= 2660
 R51: S1_D2_c2 + S2_D2_c2 + D2_c2_U >= 2600
 R52: S1_D2_c3 + S2_D2_c3 + 4 D2_c3_U >= 15200
 R53: S1_D2_c4 + S2_D2_c4 + 3 D2_c4_U >= 9399
 R54: S1_D3_c1 + S2_D3_c1 + 0.7 D3_c1_U >= 3210.9
 R55: S1_D3_c2 + S2_D3_c2 + D3_c2_U >= 4100
 R56: S1_D3_c3 + S2_D3_c3 + 4 D3_c3_U >= 16400
 R57: S1_D3_c4 + S2_D3_c4 + 3 D3_c4_U >= 12300
Bounds
 Constant = 1
Generals
 S1_D1_V S1_D1_c1 S1_D1_c2 S1_D1_c3 S1_D1_c4 S1_D2_V S1_D2_c1 S1_D2_c2
 S1_D2_c3 S1_D2_c4 S1_D3_V S1_D3_c1 S1_D3_c2 S1_D3_c3 S1_D3_c4 S2_D1_V
 S2_D1_c1 S2_D1_c2 S2_D1_c3 S2_D1_c4 S2_D2_V S2_D2_c1 S2_D2_c2 S2_D2_c3
 S2_D2_c4 S2_D3_V S2_D3_c1 S2_D3_c2 S2_D3_c3 S2_D3_c4 D1_c1_U D1_c2_U
 D1_c3_U D1_c4_U D2_c1_U D2_c2_U D2_c3_U D2_c4_U D3_c1_U D3_c2_U D3_c3_U
 D3_c4_U
End
